# Solution for model GasLib-40
# Objective value = 1.0625890955154540e+01
loadshed[innode_1] 0
loadshed[innode_2] 0
loadshed[innode_3] 0
loadshed[innode_4] 0
loadshed[innode_5] 0
loadshed[innode_6] 0
loadshed[innode_7] 0
loadshed[innode_8] 0
loadshed[source_1] -2.9418032186922960e-01
loadshed[source_2] 1.0758206563614137e-01
loadshed[source_3] 2.5381232596902970e-01
loadshed[sink_1] 0
loadshed[sink_2] 0
loadshed[sink_3] 0
loadshed[sink_4] 0
loadshed[sink_5] 0
loadshed[sink_6] 0
loadshed[sink_7] 0
loadshed[sink_8] 0
loadshed[sink_9] 0
loadshed[sink_10] 0
loadshed[sink_11] 0
loadshed[sink_12] 0.64973600744894
loadshed[sink_13] 0
loadshed[sink_14] 0
loadshed[sink_15] 0
loadshed[sink_16] 0
loadshed[sink_17] 0
loadshed[sink_18] 0
loadshed[sink_19] 0
loadshed[sink_20] 0
loadshed[sink_21] 0
loadshed[sink_22] 0
loadshed[sink_23] 0
loadshed[sink_24] 0
loadshed[sink_25] 0
loadshed[sink_26] 0
loadshed[sink_27] 0
loadshed[sink_28] 0
loadshed[sink_29] 0
flow[source_1,sink_3] 2.0459732657884035e+02
flow[innode_1,sink_16] 1.6354166666666970e+01
flow[innode_6,sink_13] -3.4858499952427522e+00
flow[sink_13,sink_14] -1.9840016661909420e+01
flow[sink_14,sink_10] -3.6194183328576088e+01
flow[sink_25,sink_26] 1.7366343566154808e+02
flow[sink_26,sink_9] 1.2274938981605729e+02
flow[sink_9,sink_18] 1.0639522314939062e+02
flow[sink_26,sink_4] 3.4559879178824126e+01
flow[sink_4,sink_20] -2.8314840049964346e+01
flow[sink_18,sink_6] 9.0041056482723945e+01
flow[sink_25,innode_8] -1.7188899324550397e+02
flow[sink_6,sink_7] 4.0978556482723889e+01
flow[sink_6,sink_22] 3.2708333333333641e+01
flow[sink_7,sink_24] 3.8436609044845468e+01
flow[sink_22,sink_1] 1.6354166666666970e+01
flow[sink_24,sink_21] 2.2082442378178797e+01
flow[sink_21,sink_12] 5.7282757115121274e+00
flow[sink_7,sink_5] -1.3812219228788152e+01
flow[sink_5,sink_17] -3.0166385895454823e+01
flow[sink_17,sink_4] -4.6520552562121495e+01
flow[sink_17,sink_8] 0
flow[sink_3,sink_23] 16.3541666666697
flow[sink_8,sink_20] -1.6354166666668334e+01
flow[sink_25,sink_20] 6.1023173383299394e+01
flow[sink_25,sink_15] -7.5665932470768283e+01
flow[sink_15,sink_29] -1.0837426580411920e+02
flow[sink_29,sink_28] 1.6354166666667879e+01
flow[sink_29,sink_2] 0
flow[sink_2,sink_15] -1.6354166666684250e+01
flow[sink_29,innode_7] -1.4108259913745306e+02
flow[innode_4,sink_19] 0
flow[sink_19,innode_3] 4.1604901596080595e+01
flow[innode_4,innode_5] 1.1796501666190998e+02
flow[sink_27,innode_5] -1.1796501666190998e+02
flow[sink_27,sink_19] 1.0161084999524331e+02
flow[sink_10,sink_11] 3.2708333333333641e+01
flow[sink_10,innode_2] -43.6517817324958
flow[sink_10,innode_3] -4.1604901596080595e+01
flow[innode_6,sink_25] 3.4858499952427522e+00
flow[sink_11,innode_1] 1.6354166666666970e+01
flow[sink_19,innode_2] 43.6517817324958
flow[source_3,innode_4] 1.1796501666190998e+02
flow[source_2,innode_7] 1.4108259913745306e+02
flow[sink_3,innode_8] 1.7188899324550397e+02
pressure[innode_1] 7.5312715049500937e+01
pressure[innode_2] 7.7771593309430088e+01
pressure[innode_3] 7.7679463966089585e+01
pressure[innode_4] 81.01325
pressure[innode_5] 8.0932107441225341e+01
pressure[innode_6] 7.3697759999284216e+01
pressure[innode_7] 81.01325
pressure[innode_8] 8.0329359296258644e+01
pressure[source_1] 81.01325
pressure[source_2] 81.01325
pressure[source_3] 81.01325
pressure[sink_1] 45.7647402327966
pressure[sink_2] 7.4011420752537731e+01
pressure[sink_3] 8.0329359296258644e+01
pressure[sink_4] 5.7072713728765386e+01
pressure[sink_5] 5.3047673906310195e+01
pressure[sink_6] 4.7865817843183969e+01
pressure[sink_7] 4.7303279940771120e+01
pressure[sink_8] 5.8010366628063231e+01
pressure[sink_9] 5.4119878424576164e+01
pressure[sink_10] 7.5464416357104483e+01
pressure[sink_11] 7.5312715049500937e+01
pressure[sink_12] 1.0132500000000002e+00
pressure[sink_13] 7.3716976907768341e+01
pressure[sink_14] 7.3752482307580564e+01
pressure[sink_15] 7.4064813502304176e+01
pressure[sink_16] 7.4291065214683258e+01
pressure[sink_17] 5.5294851606621478e+01
pressure[sink_18] 5.0270182138729012e+01
pressure[sink_19] 7.7771593309430088e+01
pressure[sink_20] 5.9150022051651518e+01
pressure[sink_21] 3.0516840079068950e+00
pressure[sink_22] 4.6828509375151604e+01
pressure[sink_23] 8.0164641284598858e+01
pressure[sink_24] 3.2962265402093460e+00
pressure[sink_25] 7.3697759999284216e+01
pressure[sink_26] 6.1466746212521386e+01
pressure[sink_27] 7.9953215778844637e+01
pressure[sink_28] 7.6944560889903087e+01
pressure[sink_29] 7.7239843163520263e+01
interdiction[source_1,sink_3] 0
interdiction[innode_1,sink_16] 0
interdiction[innode_6,sink_13] 0
interdiction[sink_13,sink_14] 0
interdiction[sink_14,sink_10] 0
interdiction[sink_25,sink_26] 0
interdiction[sink_26,sink_9] 0
interdiction[sink_9,sink_18] 0
interdiction[sink_26,sink_4] 0
interdiction[sink_4,sink_20] 0
interdiction[sink_18,sink_6] 0
interdiction[sink_25,innode_8] 0
interdiction[sink_6,sink_7] 0
interdiction[sink_6,sink_22] 0
interdiction[sink_7,sink_24] 0
interdiction[sink_22,sink_1] 0
interdiction[sink_24,sink_21] 0
interdiction[sink_21,sink_12] 0
interdiction[sink_7,sink_5] 0
interdiction[sink_5,sink_17] 0
interdiction[sink_17,sink_4] 0
interdiction[sink_17,sink_8] 1
interdiction[sink_3,sink_23] 0
interdiction[sink_8,sink_20] 0
interdiction[sink_25,sink_20] 0
interdiction[sink_25,sink_15] 0
interdiction[sink_15,sink_29] 0
interdiction[sink_29,sink_28] 0
interdiction[sink_29,sink_2] 1
interdiction[sink_2,sink_15] 0
interdiction[sink_29,innode_7] 0
interdiction[innode_4,sink_19] 1
interdiction[sink_19,innode_3] 0
interdiction[innode_4,innode_5] 0
interdiction[sink_27,innode_5] 0
interdiction[sink_27,sink_19] 0
interdiction[sink_10,sink_11] 0
interdiction[sink_10,innode_2] 0
interdiction[sink_10,innode_3] 0
interdiction[innode_6,sink_25] 0
interdiction[sink_11,innode_1] 0
interdiction[sink_19,innode_2] 0
interdiction[source_3,innode_4] 0
interdiction[source_2,innode_7] 0
interdiction[sink_3,innode_8] 0
WCcheckFlow[source_1,sink_3] 39
WCcheckFlow[innode_1,sink_16] 1
WCcheckFlow[innode_6,sink_13] 13
WCcheckFlow[sink_13,sink_14] 12
WCcheckFlow[sink_14,sink_10] 11
WCcheckFlow[sink_25,sink_26] 15
WCcheckFlow[sink_26,sink_9] 11
WCcheckFlow[sink_9,sink_18] 10
WCcheckFlow[sink_26,sink_4] 3
WCcheckFlow[sink_4,sink_20] 2
WCcheckFlow[sink_18,sink_6] 9
WCcheckFlow[sink_25,innode_8] -36
WCcheckFlow[sink_6,sink_7] 6
WCcheckFlow[sink_6,sink_22] 2
WCcheckFlow[sink_7,sink_24] 3
WCcheckFlow[sink_22,sink_1] 1
WCcheckFlow[sink_24,sink_21] 2
WCcheckFlow[sink_21,sink_12] 1
WCcheckFlow[sink_7,sink_5] 2
WCcheckFlow[sink_5,sink_17] 1
WCcheckFlow[sink_17,sink_4] 0
WCcheckFlow[sink_17,sink_8] 0
WCcheckFlow[sink_3,sink_23] 1
WCcheckFlow[sink_8,sink_20] -1
WCcheckFlow[sink_25,sink_20] 0
WCcheckFlow[sink_25,sink_15] 6
WCcheckFlow[sink_15,sink_29] 4
WCcheckFlow[sink_29,sink_28] 1
WCcheckFlow[sink_29,sink_2] 0
WCcheckFlow[sink_2,sink_15] -1
WCcheckFlow[sink_29,innode_7] 2
WCcheckFlow[innode_4,sink_19] 0
WCcheckFlow[sink_19,innode_3] -5
WCcheckFlow[innode_4,innode_5] -2
WCcheckFlow[sink_27,innode_5] 3
WCcheckFlow[sink_27,sink_19] -4
WCcheckFlow[sink_10,sink_11] 3
WCcheckFlow[sink_10,innode_2] 1
WCcheckFlow[sink_10,innode_3] 6
WCcheckFlow[innode_6,sink_25] -14
WCcheckFlow[sink_11,innode_1] 2
WCcheckFlow[sink_19,innode_2] 0
WCcheckFlow[source_3,innode_4] -1
WCcheckFlow[source_2,innode_7] -1
WCcheckFlow[sink_3,innode_8] 37
